(set-logic ALL)
(set-option :produce-models true)
(set-option :parse-transducers true)
(define-fun-rec toLower ((x String) (y String)) Bool
   (or (and (= x "") (= y ""))
       (and (not (= x "")) (not (= y ""))
           (= (char.code (str.head y))
               (ite (and (<= 65 (char.code (str.head x)))
                       (<= (char.code (str.head x)) 90))
                   (+ (char.code (str.head x)) 32)
                   (char.code (str.head x))))
           (toLower (str.tail x) (str.tail y))))
)
(declare-fun sym205 () String)
(declare-fun sym328 () String)
(declare-fun sym725 () String)
(declare-fun sym605 () String)
(declare-fun sym409 () String)
(declare-fun sym681 () String)
(declare-fun sym363 () String)
(declare-fun sym485 () String)
(declare-fun sym289 () String)
(declare-fun sym445 () String)
(declare-fun sym160 () String)
(declare-fun sym338 () String)
(declare-fun sym615 () String)
(declare-fun sym419 () String)
(declare-fun sym571 () String)
(declare-fun sym175 () String)
(declare-fun sym373 () String)
(declare-fun sym254 () String)
(declare-fun sym299 () String)
(declare-fun sym651 () String)
(declare-fun sym135 () String)
(declare-fun sym499 () String)
(declare-fun sym455 () String)
(declare-fun sym533 () String)
(declare-fun sym215 () String)
(declare-fun sym691 () String)
(declare-fun sym20 () String)
(declare-fun sym547 () String)
(declare-fun sym625 () String)
(declare-fun sym429 () String)
(declare-fun sym705 () String)
(declare-fun sym509 () String)
(declare-fun sym264 () String)
(declare-fun sym661 () String)
(declare-fun sym465 () String)
(declare-fun sym389 () String)
(declare-fun sym225 () String)
(declare-fun sym185 () String)
(declare-fun sym581 () String)
(declare-fun sym557 () String)
(declare-fun sym635 () String)
(declare-fun sym239 () String)
(declare-fun sym715 () String)
(declare-fun sym519 () String)
(declare-fun sym671 () String)
(declare-fun sym353 () String)
(declare-fun sym475 () String)
(declare-fun sym113 () String)
(declare-fun sym399 () String)
(declare-fun sym279 () String)
(declare-fun sym313 () String)
(declare-fun sym150 () String)
(declare-fun sym195 () String)
(declare-fun sym591 () String)
(define-fun Alphabet () RegLan 
	(re.* (re.union (str.to_re "A") (str.to_re "B") (str.to_re "C") (str.to_re "D") (str.to_re "E") (str.to_re "F") (str.to_re "G") (str.to_re "H") (str.to_re "I") (str.to_re "J") (str.to_re "K") (str.to_re "L") (str.to_re "M") (str.to_re "N") (str.to_re "O") (str.to_re "P") (str.to_re "Q") (str.to_re "R") (str.to_re "S") (str.to_re "T") (str.to_re "U") (str.to_re "V") (str.to_re "W") (str.to_re "X") (str.to_re "Y") (str.to_re "Z") (str.to_re "a") (str.to_re "b") (str.to_re "c") (str.to_re "d") (str.to_re "e") (str.to_re "f") (str.to_re "g") (str.to_re "h") (str.to_re "i") (str.to_re "j") (str.to_re "k") (str.to_re "l") (str.to_re "m") (str.to_re "n") (str.to_re "o") (str.to_re "p") (str.to_re "q") (str.to_re "r") (str.to_re "s") (str.to_re "t") (str.to_re "u") (str.to_re "v") (str.to_re "w") (str.to_re "x") (str.to_re "y") (str.to_re "z") ))
)
(declare-fun L80  () String)
(assert (toLower sym289  L80 ))
(declare-fun L84  () String)
(assert (toLower sym353  L84 ))
(declare-fun L2  () String)
(assert (toLower sym475  L2 ))
(declare-fun L72  () String)
(assert (toLower sym661  L72 ))
(declare-fun L92  () String)
(assert (toLower sym509  L92 ))
(declare-fun L88  () String)
(assert (toLower sym239  L88 ))
(declare-fun L6  () String)
(assert (toLower sym715  L6 ))
(declare-fun L76  () String)
(assert (toLower sym195  L76 ))
(declare-fun L32  () String)
(assert (toLower sym455  L32 ))
(declare-fun L20  () String)
(assert (toLower sym409  L20 ))
(declare-fun L96  () String)
(assert (toLower sym581  L96 ))
(declare-fun L68  () String)
(assert (toLower sym399  L68 ))
(declare-fun L24  () String)
(assert (toLower sym429  L24 ))
(declare-fun L12  () String)
(assert (toLower sym571  L12 ))
(declare-fun L28  () String)
(assert (toLower sym519  L28 ))
(declare-fun L16  () String)
(assert (toLower sym113  L16 ))
(declare-fun L100  () String)
(assert (toLower sym205  L100 ))
(declare-fun L61  () String)
(assert (toLower sym313  L61 ))
(declare-fun L1  () String)
(assert (toLower "name"  L1 ))
(declare-fun L5  () String)
(assert (toLower "field"  L5 ))
(declare-fun L53  () String)
(assert (toLower sym485  L53 ))
(declare-fun L41  () String)
(assert (toLower sym557  L41 ))
(declare-fun L37  () String)
(assert (toLower sym725  L37 ))
(declare-fun L104  () String)
(assert (toLower sym419  L104 ))
(declare-fun L25  () String)
(assert (toLower "option"  L25 ))
(declare-fun L57  () String)
(assert (toLower sym185  L57 ))
(declare-fun L45  () String)
(assert (toLower sym215  L45 ))
(declare-fun L17  () String)
(assert (toLower "database"  L17 ))
(declare-fun L49  () String)
(assert (toLower sym160  L49 ))
(declare-fun L90  () String)
(assert (toLower sym373  L90 ))
(declare-fun L0  () String)
(assert (toLower sym705  L0 ))
(declare-fun L94  () String)
(assert (toLower sym533  L94 ))
(declare-fun L82  () String)
(assert (toLower sym254  L82 ))
(declare-fun L4  () String)
(assert (toLower sym299  L4 ))
(declare-fun L70  () String)
(assert (toLower sym150  L70 ))
(declare-fun L66  () String)
(assert (toLower sym465  L66 ))
(declare-fun L22  () String)
(assert (toLower sym681  L22 ))
(declare-fun L98  () String)
(assert (toLower sym389  L98 ))
(declare-fun L10  () String)
(assert (toLower sym445  L10 ))
(declare-fun L86  () String)
(assert (toLower sym691  L86 ))
(declare-fun L8  () String)
(assert (toLower sym499  L8 ))
(declare-fun L74  () String)
(assert (toLower sym135  L74 ))
(declare-fun L30  () String)
(assert (toLower sym605  L30 ))
(declare-fun L26  () String)
(assert (toLower sym225  L26 ))
(declare-fun L14  () String)
(assert (toLower sym671  L14 ))
(declare-fun L78  () String)
(assert (toLower sym591  L78 ))
(declare-fun L34  () String)
(assert (toLower sym20  L34 ))
(declare-fun L18  () String)
(assert (toLower sym338  L18 ))
(declare-fun L102  () String)
(assert (toLower sym651  L102 ))
(declare-fun L51  () String)
(assert (toLower sym279  L51 ))
(declare-fun L3  () String)
(assert (toLower "length"  L3 ))
(declare-fun L55  () String)
(assert (toLower sym264  L55 ))
(declare-fun L43  () String)
(assert (toLower sym363  L43 ))
(declare-fun L63  () String)
(assert (toLower sym175  L63 ))
(declare-fun L7  () String)
(assert (toLower "description"  L7 ))
(declare-fun L59  () String)
(assert (toLower sym625  L59 ))
(declare-fun L15  () String)
(assert (toLower "type"  L15 ))
(declare-fun L47  () String)
(assert (toLower sym615  L47 ))
(declare-fun L35  () String)
(assert (toLower sym547  L35 ))
(declare-fun L106  () String)
(assert (toLower sym328  L106 ))
(declare-fun L39  () String)
(assert (toLower sym635  L39 ))
(declare-fun L27  () String)
(assert (toLower "table"  L27 ))

(assert (str.in_re sym591 Alphabet))
(assert (str.in_re sym195 Alphabet))
(assert (str.in_re sym150 Alphabet))
(assert (str.in_re sym313 Alphabet))
(assert (str.in_re sym279 Alphabet))
(assert (str.in_re sym399 Alphabet))
(assert (str.in_re sym113 Alphabet))
(assert (str.in_re sym475 Alphabet))
(assert (str.in_re sym353 Alphabet))
(assert (str.in_re sym671 Alphabet))
(assert (str.in_re sym519 Alphabet))
(assert (str.in_re sym715 Alphabet))
(assert (str.in_re sym239 Alphabet))
(assert (str.in_re sym635 Alphabet))
(assert (str.in_re sym557 Alphabet))
(assert (str.in_re sym581 Alphabet))
(assert (str.in_re sym185 Alphabet))
(assert (str.in_re sym225 Alphabet))
(assert (str.in_re sym389 Alphabet))
(assert (str.in_re sym465 Alphabet))
(assert (str.in_re sym661 Alphabet))
(assert (str.in_re sym264 Alphabet))
(assert (str.in_re sym509 Alphabet))
(assert (str.in_re sym705 Alphabet))
(assert (str.in_re sym429 Alphabet))
(assert (str.in_re sym625 Alphabet))
(assert (str.in_re sym547 Alphabet))
(assert (str.in_re sym20 Alphabet))
(assert (str.in_re sym691 Alphabet))
(assert (str.in_re sym215 Alphabet))
(assert (str.in_re sym533 Alphabet))
(assert (str.in_re sym455 Alphabet))
(assert (str.in_re sym499 Alphabet))
(assert (str.in_re sym135 Alphabet))
(assert (str.in_re sym651 Alphabet))
(assert (str.in_re sym299 Alphabet))
(assert (str.in_re sym254 Alphabet))
(assert (str.in_re sym373 Alphabet))
(assert (str.in_re sym175 Alphabet))
(assert (str.in_re sym571 Alphabet))
(assert (str.in_re sym419 Alphabet))
(assert (str.in_re sym615 Alphabet))
(assert (str.in_re sym338 Alphabet))
(assert (str.in_re sym160 Alphabet))
(assert (str.in_re sym445 Alphabet))
(assert (str.in_re sym289 Alphabet))
(assert (str.in_re sym485 Alphabet))
(assert (str.in_re sym363 Alphabet))
(assert (str.in_re sym681 Alphabet))
(assert (str.in_re sym409 Alphabet))
(assert (str.in_re sym605 Alphabet))
(assert (str.in_re sym725 Alphabet))
(assert (str.in_re sym328 Alphabet))
(assert (str.in_re sym205 Alphabet))
(assert (not (= L0 L1 )))
(assert (not (= L2 L3 )))
(assert (= L4 L5 ))
(assert (not (= L6 L7 )))
(assert (not (= L8 L1 )))
(assert (not (= L10 L1 )))
(assert (not (= L12 L1 )))
(assert (not (= L14 L15 )))
(assert (= L16 L17 ))
(assert (= L18 L7 ))
(assert (not (= L20 L15 )))
(assert (not (= L22 L3 )))
(assert (= L24 L25 ))
(assert (= L26 L27 ))
(assert (= L28 L5 ))
(assert (not (= L30 L1 )))
(assert (not (= L32 L7 )))
(assert (not (= L34 "html" )))
(assert (not (= L35 L1 )))
(assert (not (= L37 L5 )))
(assert (= L39 L3 ))
(assert (= L41 L7 ))
(assert (not (= L43 L7 )))
(assert (not (= L45 L7 )))
(assert (not (= L47 L7 )))
(assert (= L49 L7 ))
(assert (not (= L51 L1 )))
(assert (= L53 L25 ))
(assert (= L55 L7 ))
(assert (not (= L57 L7 )))
(assert (not (= L59 L15 )))
(assert (= L61 L1 ))
(assert (not (= L63 L1 )))
(assert (not (= L34 "sql" )))
(assert (not (= L66 L15 )))
(assert (not (= L68 L7 )))
(assert (not (= L70 L1 )))
(assert (not (= L72 L7 )))
(assert (= L74 L1 ))
(assert (not (= L76 L27 )))
(assert (= L78 L15 ))
(assert (not (= L80 L7 )))
(assert (not (= L82 L1 )))
(assert (not (= L84 L1 )))
(assert (= L86 L25 ))
(assert (= L88 L1 ))
(assert (= L90 L15 ))
(assert (not (= L92 L7 )))
(assert (= L94 L1 ))
(assert (not (= L96 L7 )))
(assert (not (= L98 L1 )))
(assert (not (= L100 L1 )))
(assert (not (= L102 L1 )))
(assert (not (= L104 L3 )))
(assert (not (= L106 L1 )))
(check-sat)
(get-model)
(exit)
